c
c Generated WCNF file
c
p wcnf 301 1429 55288
55288 25 0
55288 -26 1 0
55288 -26 2 0
55288 26 -1 -2 0
55288 -27 1 0
55288 -27 3 0
55288 27 -1 -3 0
55288 -28 1 0
55288 -28 4 0
55288 28 -1 -4 0
55288 -29 1 0
55288 -29 5 0
55288 29 -1 -5 0
55288 -30 1 0
55288 -30 6 0
55288 30 -1 -6 0
55288 -31 1 0
55288 -31 7 0
55288 31 -1 -7 0
55288 -32 1 0
55288 -32 8 0
55288 32 -1 -8 0
55288 -33 1 0
55288 -33 9 0
55288 33 -1 -9 0
55288 -34 1 0
55288 -34 10 0
55288 34 -1 -10 0
55288 -35 1 0
55288 -35 11 0
55288 35 -1 -11 0
55288 -36 1 0
55288 -36 12 0
55288 36 -1 -12 0
55288 -37 1 0
55288 -37 13 0
55288 37 -1 -13 0
55288 -38 1 0
55288 -38 14 0
55288 38 -1 -14 0
55288 -39 1 0
55288 -39 15 0
55288 39 -1 -15 0
55288 -40 1 0
55288 -40 16 0
55288 40 -1 -16 0
55288 -41 1 0
55288 -41 17 0
55288 41 -1 -17 0
55288 -42 1 0
55288 -42 18 0
55288 42 -1 -18 0
55288 -43 1 0
55288 -43 19 0
55288 43 -1 -19 0
55288 -44 1 0
55288 -44 20 0
55288 44 -1 -20 0
55288 -45 1 0
55288 -45 21 0
55288 45 -1 -21 0
55288 -46 1 0
55288 -46 22 0
55288 46 -1 -22 0
55288 -47 1 0
55288 -47 23 0
55288 47 -1 -23 0
55288 -48 1 0
55288 -48 24 0
55288 48 -1 -24 0
55288 -49 2 0
55288 -49 3 0
55288 49 -2 -3 0
55288 -50 2 0
55288 -50 4 0
55288 50 -2 -4 0
55288 -51 2 0
55288 -51 5 0
55288 51 -2 -5 0
55288 -52 2 0
55288 -52 6 0
55288 52 -2 -6 0
55288 -53 2 0
55288 -53 7 0
55288 53 -2 -7 0
55288 -54 2 0
55288 -54 8 0
55288 54 -2 -8 0
55288 -55 2 0
55288 -55 9 0
55288 55 -2 -9 0
55288 -56 2 0
55288 -56 10 0
55288 56 -2 -10 0
55288 -57 2 0
55288 -57 11 0
55288 57 -2 -11 0
55288 -58 2 0
55288 -58 12 0
55288 58 -2 -12 0
55288 -59 2 0
55288 -59 13 0
55288 59 -2 -13 0
55288 -60 2 0
55288 -60 14 0
55288 60 -2 -14 0
55288 -61 2 0
55288 -61 15 0
55288 61 -2 -15 0
55288 -62 2 0
55288 -62 16 0
55288 62 -2 -16 0
55288 -63 2 0
55288 -63 17 0
55288 63 -2 -17 0
55288 -64 2 0
55288 -64 18 0
55288 64 -2 -18 0
55288 -65 2 0
55288 -65 19 0
55288 65 -2 -19 0
55288 -66 2 0
55288 -66 20 0
55288 66 -2 -20 0
55288 -67 2 0
55288 -67 21 0
55288 67 -2 -21 0
55288 -68 2 0
55288 -68 22 0
55288 68 -2 -22 0
55288 -69 2 0
55288 -69 23 0
55288 69 -2 -23 0
55288 -70 2 0
55288 -70 24 0
55288 70 -2 -24 0
55288 -71 3 0
55288 -71 4 0
55288 71 -3 -4 0
55288 -72 3 0
55288 -72 5 0
55288 72 -3 -5 0
55288 -73 3 0
55288 -73 6 0
55288 73 -3 -6 0
55288 -74 3 0
55288 -74 7 0
55288 74 -3 -7 0
55288 -75 3 0
55288 -75 8 0
55288 75 -3 -8 0
55288 -76 3 0
55288 -76 9 0
55288 76 -3 -9 0
55288 -77 3 0
55288 -77 10 0
55288 77 -3 -10 0
55288 -78 3 0
55288 -78 11 0
55288 78 -3 -11 0
55288 -79 3 0
55288 -79 12 0
55288 79 -3 -12 0
55288 -80 3 0
55288 -80 13 0
55288 80 -3 -13 0
55288 -81 3 0
55288 -81 14 0
55288 81 -3 -14 0
55288 -82 3 0
55288 -82 15 0
55288 82 -3 -15 0
55288 -83 3 0
55288 -83 16 0
55288 83 -3 -16 0
55288 -84 3 0
55288 -84 17 0
55288 84 -3 -17 0
55288 -85 3 0
55288 -85 18 0
55288 85 -3 -18 0
55288 -86 3 0
55288 -86 19 0
55288 86 -3 -19 0
55288 -87 3 0
55288 -87 20 0
55288 87 -3 -20 0
55288 -88 3 0
55288 -88 21 0
55288 88 -3 -21 0
55288 -89 3 0
55288 -89 22 0
55288 89 -3 -22 0
55288 -90 3 0
55288 -90 23 0
55288 90 -3 -23 0
55288 -91 3 0
55288 -91 24 0
55288 91 -3 -24 0
55288 -92 4 0
55288 -92 5 0
55288 92 -4 -5 0
55288 -93 4 0
55288 -93 6 0
55288 93 -4 -6 0
55288 -94 4 0
55288 -94 7 0
55288 94 -4 -7 0
55288 -95 4 0
55288 -95 8 0
55288 95 -4 -8 0
55288 -96 4 0
55288 -96 9 0
55288 96 -4 -9 0
55288 -97 4 0
55288 -97 10 0
55288 97 -4 -10 0
55288 -98 4 0
55288 -98 11 0
55288 98 -4 -11 0
55288 -99 4 0
55288 -99 12 0
55288 99 -4 -12 0
55288 -100 4 0
55288 -100 13 0
55288 100 -4 -13 0
55288 -101 4 0
55288 -101 14 0
55288 101 -4 -14 0
55288 -102 4 0
55288 -102 15 0
55288 102 -4 -15 0
55288 -103 4 0
55288 -103 16 0
55288 103 -4 -16 0
55288 -104 4 0
55288 -104 17 0
55288 104 -4 -17 0
55288 -105 4 0
55288 -105 18 0
55288 105 -4 -18 0
55288 -106 4 0
55288 -106 19 0
55288 106 -4 -19 0
55288 -107 4 0
55288 -107 20 0
55288 107 -4 -20 0
55288 -108 4 0
55288 -108 21 0
55288 108 -4 -21 0
55288 -109 4 0
55288 -109 22 0
55288 109 -4 -22 0
55288 -110 4 0
55288 -110 23 0
55288 110 -4 -23 0
55288 -111 4 0
55288 -111 24 0
55288 111 -4 -24 0
55288 -112 5 0
55288 -112 6 0
55288 112 -5 -6 0
55288 -113 5 0
55288 -113 7 0
55288 113 -5 -7 0
55288 -114 5 0
55288 -114 8 0
55288 114 -5 -8 0
55288 -115 5 0
55288 -115 9 0
55288 115 -5 -9 0
55288 -116 5 0
55288 -116 10 0
55288 116 -5 -10 0
55288 -117 5 0
55288 -117 11 0
55288 117 -5 -11 0
55288 -118 5 0
55288 -118 12 0
55288 118 -5 -12 0
55288 -119 5 0
55288 -119 13 0
55288 119 -5 -13 0
55288 -120 5 0
55288 -120 14 0
55288 120 -5 -14 0
55288 -121 5 0
55288 -121 15 0
55288 121 -5 -15 0
55288 -122 5 0
55288 -122 16 0
55288 122 -5 -16 0
55288 -123 5 0
55288 -123 17 0
55288 123 -5 -17 0
55288 -124 5 0
55288 -124 18 0
55288 124 -5 -18 0
55288 -125 5 0
55288 -125 19 0
55288 125 -5 -19 0
55288 -126 5 0
55288 -126 20 0
55288 126 -5 -20 0
55288 -127 5 0
55288 -127 21 0
55288 127 -5 -21 0
55288 -128 5 0
55288 -128 22 0
55288 128 -5 -22 0
55288 -129 5 0
55288 -129 23 0
55288 129 -5 -23 0
55288 -130 5 0
55288 -130 24 0
55288 130 -5 -24 0
55288 -131 6 0
55288 -131 7 0
55288 131 -6 -7 0
55288 -132 6 0
55288 -132 8 0
55288 132 -6 -8 0
55288 -133 6 0
55288 -133 9 0
55288 133 -6 -9 0
55288 -134 6 0
55288 -134 10 0
55288 134 -6 -10 0
55288 -135 6 0
55288 -135 11 0
55288 135 -6 -11 0
55288 -136 6 0
55288 -136 12 0
55288 136 -6 -12 0
55288 -137 6 0
55288 -137 13 0
55288 137 -6 -13 0
55288 -138 6 0
55288 -138 14 0
55288 138 -6 -14 0
55288 -139 6 0
55288 -139 15 0
55288 139 -6 -15 0
55288 -140 6 0
55288 -140 16 0
55288 140 -6 -16 0
55288 -141 6 0
55288 -141 17 0
55288 141 -6 -17 0
55288 -142 6 0
55288 -142 18 0
55288 142 -6 -18 0
55288 -143 6 0
55288 -143 19 0
55288 143 -6 -19 0
55288 -144 6 0
55288 -144 20 0
55288 144 -6 -20 0
55288 -145 6 0
55288 -145 21 0
55288 145 -6 -21 0
55288 -146 6 0
55288 -146 22 0
55288 146 -6 -22 0
55288 -147 6 0
55288 -147 23 0
55288 147 -6 -23 0
55288 -148 6 0
55288 -148 24 0
55288 148 -6 -24 0
55288 -149 7 0
55288 -149 8 0
55288 149 -7 -8 0
55288 -150 7 0
55288 -150 9 0
55288 150 -7 -9 0
55288 -151 7 0
55288 -151 10 0
55288 151 -7 -10 0
55288 -152 7 0
55288 -152 11 0
55288 152 -7 -11 0
55288 -153 7 0
55288 -153 12 0
55288 153 -7 -12 0
55288 -154 7 0
55288 -154 13 0
55288 154 -7 -13 0
55288 -155 7 0
55288 -155 14 0
55288 155 -7 -14 0
55288 -156 7 0
55288 -156 15 0
55288 156 -7 -15 0
55288 -157 7 0
55288 -157 16 0
55288 157 -7 -16 0
55288 -158 7 0
55288 -158 17 0
55288 158 -7 -17 0
55288 -159 7 0
55288 -159 18 0
55288 159 -7 -18 0
55288 -160 7 0
55288 -160 19 0
55288 160 -7 -19 0
55288 -161 7 0
55288 -161 20 0
55288 161 -7 -20 0
55288 -162 7 0
55288 -162 21 0
55288 162 -7 -21 0
55288 -163 7 0
55288 -163 22 0
55288 163 -7 -22 0
55288 -164 7 0
55288 -164 23 0
55288 164 -7 -23 0
55288 -165 7 0
55288 -165 24 0
55288 165 -7 -24 0
55288 -166 8 0
55288 -166 9 0
55288 166 -8 -9 0
55288 -167 8 0
55288 -167 10 0
55288 167 -8 -10 0
55288 -168 8 0
55288 -168 11 0
55288 168 -8 -11 0
55288 -169 8 0
55288 -169 12 0
55288 169 -8 -12 0
55288 -170 8 0
55288 -170 13 0
55288 170 -8 -13 0
55288 -171 8 0
55288 -171 14 0
55288 171 -8 -14 0
55288 -172 8 0
55288 -172 15 0
55288 172 -8 -15 0
55288 -173 8 0
55288 -173 16 0
55288 173 -8 -16 0
55288 -174 8 0
55288 -174 17 0
55288 174 -8 -17 0
55288 -175 8 0
55288 -175 18 0
55288 175 -8 -18 0
55288 -176 8 0
55288 -176 19 0
55288 176 -8 -19 0
55288 -177 8 0
55288 -177 20 0
55288 177 -8 -20 0
55288 -178 8 0
55288 -178 21 0
55288 178 -8 -21 0
55288 -179 8 0
55288 -179 22 0
55288 179 -8 -22 0
55288 -180 8 0
55288 -180 23 0
55288 180 -8 -23 0
55288 -181 8 0
55288 -181 24 0
55288 181 -8 -24 0
55288 -182 9 0
55288 -182 10 0
55288 182 -9 -10 0
55288 -183 9 0
55288 -183 11 0
55288 183 -9 -11 0
55288 -184 9 0
55288 -184 12 0
55288 184 -9 -12 0
55288 -185 9 0
55288 -185 13 0
55288 185 -9 -13 0
55288 -186 9 0
55288 -186 14 0
55288 186 -9 -14 0
55288 -187 9 0
55288 -187 15 0
55288 187 -9 -15 0
55288 -188 9 0
55288 -188 16 0
55288 188 -9 -16 0
55288 -189 9 0
55288 -189 17 0
55288 189 -9 -17 0
55288 -190 9 0
55288 -190 18 0
55288 190 -9 -18 0
55288 -191 9 0
55288 -191 19 0
55288 191 -9 -19 0
55288 -192 9 0
55288 -192 20 0
55288 192 -9 -20 0
55288 -193 9 0
55288 -193 21 0
55288 193 -9 -21 0
55288 -194 9 0
55288 -194 22 0
55288 194 -9 -22 0
55288 -195 9 0
55288 -195 23 0
55288 195 -9 -23 0
55288 -196 9 0
55288 -196 24 0
55288 196 -9 -24 0
55288 -197 10 0
55288 -197 11 0
55288 197 -10 -11 0
55288 -198 10 0
55288 -198 12 0
55288 198 -10 -12 0
55288 -199 10 0
55288 -199 13 0
55288 199 -10 -13 0
55288 -200 10 0
55288 -200 14 0
55288 200 -10 -14 0
55288 -201 10 0
55288 -201 15 0
55288 201 -10 -15 0
55288 -202 10 0
55288 -202 16 0
55288 202 -10 -16 0
55288 -203 10 0
55288 -203 17 0
55288 203 -10 -17 0
55288 -204 10 0
55288 -204 18 0
55288 204 -10 -18 0
55288 -205 10 0
55288 -205 19 0
55288 205 -10 -19 0
55288 -206 10 0
55288 -206 20 0
55288 206 -10 -20 0
55288 -207 10 0
55288 -207 21 0
55288 207 -10 -21 0
55288 -208 10 0
55288 -208 22 0
55288 208 -10 -22 0
55288 -209 10 0
55288 -209 23 0
55288 209 -10 -23 0
55288 -210 10 0
55288 -210 24 0
55288 210 -10 -24 0
55288 -211 11 0
55288 -211 12 0
55288 211 -11 -12 0
55288 -212 11 0
55288 -212 13 0
55288 212 -11 -13 0
55288 -213 11 0
55288 -213 14 0
55288 213 -11 -14 0
55288 -214 11 0
55288 -214 15 0
55288 214 -11 -15 0
55288 -215 11 0
55288 -215 16 0
55288 215 -11 -16 0
55288 -216 11 0
55288 -216 17 0
55288 216 -11 -17 0
55288 -217 11 0
55288 -217 18 0
55288 217 -11 -18 0
55288 -218 11 0
55288 -218 19 0
55288 218 -11 -19 0
55288 -219 11 0
55288 -219 20 0
55288 219 -11 -20 0
55288 -220 11 0
55288 -220 21 0
55288 220 -11 -21 0
55288 -221 11 0
55288 -221 22 0
55288 221 -11 -22 0
55288 -222 11 0
55288 -222 23 0
55288 222 -11 -23 0
55288 -223 11 0
55288 -223 24 0
55288 223 -11 -24 0
55288 -224 12 0
55288 -224 13 0
55288 224 -12 -13 0
55288 -225 12 0
55288 -225 14 0
55288 225 -12 -14 0
55288 -226 12 0
55288 -226 15 0
55288 226 -12 -15 0
55288 -227 12 0
55288 -227 16 0
55288 227 -12 -16 0
55288 -228 12 0
55288 -228 17 0
55288 228 -12 -17 0
55288 -229 12 0
55288 -229 18 0
55288 229 -12 -18 0
55288 -230 12 0
55288 -230 19 0
55288 230 -12 -19 0
55288 -231 12 0
55288 -231 20 0
55288 231 -12 -20 0
55288 -232 12 0
55288 -232 21 0
55288 232 -12 -21 0
55288 -233 12 0
55288 -233 22 0
55288 233 -12 -22 0
55288 -234 12 0
55288 -234 23 0
55288 234 -12 -23 0
55288 -235 12 0
55288 -235 24 0
55288 235 -12 -24 0
55288 -236 13 0
55288 -236 14 0
55288 236 -13 -14 0
55288 -237 13 0
55288 -237 15 0
55288 237 -13 -15 0
55288 -238 13 0
55288 -238 16 0
55288 238 -13 -16 0
55288 -239 13 0
55288 -239 17 0
55288 239 -13 -17 0
55288 -240 13 0
55288 -240 18 0
55288 240 -13 -18 0
55288 -241 13 0
55288 -241 19 0
55288 241 -13 -19 0
55288 -242 13 0
55288 -242 20 0
55288 242 -13 -20 0
55288 -243 13 0
55288 -243 21 0
55288 243 -13 -21 0
55288 -244 13 0
55288 -244 22 0
55288 244 -13 -22 0
55288 -245 13 0
55288 -245 23 0
55288 245 -13 -23 0
55288 -246 13 0
55288 -246 24 0
55288 246 -13 -24 0
55288 -247 14 0
55288 -247 15 0
55288 247 -14 -15 0
55288 -248 14 0
55288 -248 16 0
55288 248 -14 -16 0
55288 -249 14 0
55288 -249 17 0
55288 249 -14 -17 0
55288 -250 14 0
55288 -250 18 0
55288 250 -14 -18 0
55288 -251 14 0
55288 -251 19 0
55288 251 -14 -19 0
55288 -252 14 0
55288 -252 20 0
55288 252 -14 -20 0
55288 -253 14 0
55288 -253 21 0
55288 253 -14 -21 0
55288 -254 14 0
55288 -254 22 0
55288 254 -14 -22 0
55288 -255 14 0
55288 -255 23 0
55288 255 -14 -23 0
55288 -256 14 0
55288 -256 24 0
55288 256 -14 -24 0
55288 -257 15 0
55288 -257 16 0
55288 257 -15 -16 0
55288 -258 15 0
55288 -258 17 0
55288 258 -15 -17 0
55288 -259 15 0
55288 -259 18 0
55288 259 -15 -18 0
55288 -260 15 0
55288 -260 19 0
55288 260 -15 -19 0
55288 -261 15 0
55288 -261 20 0
55288 261 -15 -20 0
55288 -262 15 0
55288 -262 21 0
55288 262 -15 -21 0
55288 -263 15 0
55288 -263 22 0
55288 263 -15 -22 0
55288 -264 15 0
55288 -264 23 0
55288 264 -15 -23 0
55288 -265 15 0
55288 -265 24 0
55288 265 -15 -24 0
55288 -266 16 0
55288 -266 17 0
55288 266 -16 -17 0
55288 -267 16 0
55288 -267 18 0
55288 267 -16 -18 0
55288 -268 16 0
55288 -268 19 0
55288 268 -16 -19 0
55288 -269 16 0
55288 -269 20 0
55288 269 -16 -20 0
55288 -270 16 0
55288 -270 21 0
55288 270 -16 -21 0
55288 -271 16 0
55288 -271 22 0
55288 271 -16 -22 0
55288 -272 16 0
55288 -272 23 0
55288 272 -16 -23 0
55288 -273 16 0
55288 -273 24 0
55288 273 -16 -24 0
55288 -274 17 0
55288 -274 18 0
55288 274 -17 -18 0
55288 -275 17 0
55288 -275 19 0
55288 275 -17 -19 0
55288 -276 17 0
55288 -276 20 0
55288 276 -17 -20 0
55288 -277 17 0
55288 -277 21 0
55288 277 -17 -21 0
55288 -278 17 0
55288 -278 22 0
55288 278 -17 -22 0
55288 -279 17 0
55288 -279 23 0
55288 279 -17 -23 0
55288 -280 17 0
55288 -280 24 0
55288 280 -17 -24 0
55288 -281 18 0
55288 -281 19 0
55288 281 -18 -19 0
55288 -282 18 0
55288 -282 20 0
55288 282 -18 -20 0
55288 -283 18 0
55288 -283 21 0
55288 283 -18 -21 0
55288 -284 18 0
55288 -284 22 0
55288 284 -18 -22 0
55288 -285 18 0
55288 -285 23 0
55288 285 -18 -23 0
55288 -286 18 0
55288 -286 24 0
55288 286 -18 -24 0
55288 -287 19 0
55288 -287 20 0
55288 287 -19 -20 0
55288 -288 19 0
55288 -288 21 0
55288 288 -19 -21 0
55288 -289 19 0
55288 -289 22 0
55288 289 -19 -22 0
55288 -290 19 0
55288 -290 23 0
55288 290 -19 -23 0
55288 -291 19 0
55288 -291 24 0
55288 291 -19 -24 0
55288 -292 20 0
55288 -292 21 0
55288 292 -20 -21 0
55288 -293 20 0
55288 -293 22 0
55288 293 -20 -22 0
55288 -294 20 0
55288 -294 23 0
55288 294 -20 -23 0
55288 -295 20 0
55288 -295 24 0
55288 295 -20 -24 0
55288 -296 21 0
55288 -296 22 0
55288 296 -21 -22 0
55288 -297 21 0
55288 -297 23 0
55288 297 -21 -23 0
55288 -298 21 0
55288 -298 24 0
55288 298 -21 -24 0
55288 -299 22 0
55288 -299 23 0
55288 299 -22 -23 0
55288 -300 22 0
55288 -300 24 0
55288 300 -22 -24 0
55288 -301 23 0
55288 -301 24 0
55288 301 -23 -24 0
31786 1 0
55278 -1 0
54870 26 0
55278 -26 0
52086 27 0
55278 -27 0
61260 28 0
55278 -28 0
54016 29 0
55278 -29 0
52672 30 0
55278 -30 0
52030 31 0
55278 -31 0
62634 32 0
55278 -32 0
67118 33 0
55278 -33 0
41244 34 0
55278 -34 0
54128 35 0
55278 -35 0
51314 36 0
55278 -36 0
54720 37 0
55278 -37 0
58504 38 0
55278 -38 0
47298 39 0
55278 -39 0
51072 40 0
55278 -40 0
49962 41 0
55278 -41 0
53896 42 0
55278 -42 0
54530 43 0
55278 -43 0
50288 44 0
55278 -44 0
58988 45 0
55278 -45 0
57640 46 0
55278 -46 0
49924 47 0
55278 -47 0
51330 48 0
55278 -48 0
35740 2 0
55278 -2 0
65174 49 0
55278 -49 0
56118 50 0
55278 -50 0
57386 51 0
55278 -51 0
43098 52 0
55278 -52 0
42012 53 0
55278 -53 0
49666 54 0
55278 -54 0
52210 55 0
55278 -55 0
55276 56 0
55278 -56 0
65176 57 0
55278 -57 0
53352 58 0
55278 -58 0
58362 59 0
55278 -59 0
49892 60 0
55278 -60 0
58522 61 0
55278 -61 0
49152 62 0
55278 -62 0
57130 63 0
55278 -63 0
52460 64 0
55278 -64 0
53894 65 0
55278 -65 0
47740 66 0
55278 -66 0
58628 67 0
55278 -67 0
62266 68 0
55278 -68 0
52928 69 0
55278 -69 0
52170 70 0
55278 -70 0
40119 3 0
55278 -3 0
43192 71 0
55278 -71 0
42966 72 0
55278 -72 0
55944 73 0
55278 -73 0
65780 74 0
55278 -74 0
52976 75 0
55278 -75 0
51658 76 0
55278 -76 0
46506 77 0
55278 -77 0
55844 78 0
55278 -78 0
46710 79 0
55278 -79 0
50818 80 0
55278 -80 0
62574 81 0
55278 -81 0
62420 82 0
55278 -82 0
55868 83 0
55278 -83 0
56040 84 0
55278 -84 0
53046 85 0
55278 -85 0
57844 86 0
55278 -86 0
56216 87 0
55278 -87 0
52254 88 0
55278 -88 0
56488 89 0
55278 -89 0
60034 90 0
55278 -90 0
58638 91 0
55278 -91 0
39743 4 0
55278 -4 0
48214 92 0
55278 -92 0
44546 93 0
55278 -93 0
64612 94 0
55278 -94 0
43992 95 0
55278 -95 0
56306 96 0
55278 -96 0
58924 97 0
55278 -97 0
50034 98 0
55278 -98 0
41288 99 0
55278 -99 0
50248 100 0
55278 -100 0
54654 101 0
55278 -101 0
54864 102 0
55278 -102 0
54770 103 0
55278 -103 0
50642 104 0
55278 -104 0
50480 105 0
55278 -105 0
58946 106 0
55278 -106 0
51254 107 0
55278 -107 0
52312 108 0
55278 -108 0
56866 109 0
55278 -109 0
59298 110 0
55278 -110 0
58554 111 0
55278 -111 0
36313 5 0
55278 -5 0
48990 112 0
55278 -112 0
62220 113 0
55278 -113 0
47700 114 0
55278 -114 0
62924 115 0
55278 -115 0
50728 116 0
55278 -116 0
62318 117 0
55278 -117 0
41064 118 0
55278 -118 0
53082 119 0
55278 -119 0
53396 120 0
55278 -120 0
60268 121 0
55278 -121 0
63666 122 0
55278 -122 0
57658 123 0
55278 -123 0
49024 124 0
55278 -124 0
59232 125 0
55278 -125 0
53214 126 0
55278 -126 0
51384 127 0
55278 -127 0
55940 128 0
55278 -128 0
59520 129 0
55278 -129 0
59310 130 0
55278 -130 0
47692 6 0
55278 -6 0
49158 131 0
55278 -131 0
49430 132 0
55278 -132 0
58092 133 0
55278 -133 0
48984 134 0
55278 -134 0
52906 135 0
55278 -135 0
44362 136 0
55278 -136 0
49700 137 0
55278 -137 0
52838 138 0
55278 -138 0
58878 139 0
55278 -139 0
58196 140 0
55278 -140 0
57696 141 0
55278 -141 0
55316 142 0
55278 -142 0
52710 143 0
55278 -143 0
53664 144 0
55278 -144 0
57758 145 0
55278 -145 0
59566 146 0
55278 -146 0
52318 147 0
55278 -147 0
52590 148 0
55278 -148 0
43447 7 0
55278 -7 0
60678 149 0
55278 -149 0
43602 150 0
55278 -150 0
50630 151 0
55278 -151 0
61592 152 0
55278 -152 0
61578 153 0
55278 -153 0
58956 154 0
55278 -154 0
51620 155 0
55278 -155 0
55988 156 0
55278 -156 0
53298 157 0
55278 -157 0
60180 158 0
55278 -158 0
53596 159 0
55278 -159 0
55450 160 0
55278 -160 0
49602 161 0
55278 -161 0
58668 162 0
55278 -162 0
58206 163 0
55278 -163 0
51456 164 0
55278 -164 0
52002 165 0
55278 -165 0
41616 8 0
55278 -8 0
64438 166 0
55278 -166 0
53642 167 0
55278 -167 0
58118 168 0
55278 -168 0
50870 169 0
55278 -169 0
53482 170 0
55278 -170 0
45266 171 0
55278 -171 0
55754 172 0
55278 -172 0
57858 173 0
55278 -173 0
52312 174 0
55278 -174 0
53316 175 0
55278 -175 0
56182 176 0
55278 -176 0
57110 177 0
55278 -177 0
53724 178 0
55278 -178 0
56716 179 0
55278 -179 0
57986 180 0
55278 -180 0
56958 181 0
55278 -181 0
37393 9 0
55278 -9 0
57200 182 0
55278 -182 0
54984 183 0
55278 -183 0
66746 184 0
55278 -184 0
56036 185 0
55278 -185 0
50844 186 0
55278 -186 0
56660 187 0
55278 -187 0
48490 188 0
55278 -188 0
58224 189 0
55278 -189 0
55200 190 0
55278 -190 0
55800 191 0
55278 -191 0
51666 192 0
55278 -192 0
55240 193 0
55278 -193 0
57340 194 0
55278 -194 0
57866 195 0
55278 -195 0
55950 196 0
55278 -196 0
46715 10 0
55278 -10 0
57838 197 0
55278 -197 0
58338 198 0
55278 -198 0
51600 199 0
55278 -199 0
53834 200 0
55278 -200 0
55386 201 0
55278 -201 0
51798 202 0
55278 -202 0
54708 203 0
55278 -203 0
58916 204 0
55278 -204 0
49374 205 0
55278 -205 0
55274 206 0
55278 -206 0
56576 207 0
55278 -207 0
56188 208 0
55278 -208 0
51596 209 0
55278 -209 0
53178 210 0
55278 -210 0
46816 11 0
55278 -11 0
55662 211 0
55278 -211 0
49910 212 0
55278 -212 0
60440 213 0
55278 -213 0
51144 214 0
55278 -214 0
54706 215 0
55278 -215 0
48670 216 0
55278 -216 0
64804 217 0
55278 -217 0
54060 218 0
55278 -218 0
59108 219 0
55278 -219 0
56342 220 0
55278 -220 0
54006 221 0
55278 -221 0
57350 222 0
55278 -222 0
54942 223 0
55278 -223 0
38263 12 0
55278 -12 0
53184 224 0
55278 -224 0
60940 225 0
55278 -225 0
55334 226 0
55278 -226 0
65786 227 0
55278 -227 0
50310 228 0
55278 -228 0
48000 229 0
55278 -229 0
60472 230 0
55278 -230 0
50078 231 0
55278 -231 0
51058 232 0
55278 -232 0
54856 233 0
55278 -233 0
57738 234 0
55278 -234 0
59310 235 0
55278 -235 0
60627 13 0
55278 -13 0
55240 236 0
55278 -236 0
56112 237 0
55278 -237 0
49516 238 0
55278 -238 0
52702 239 0
55278 -239 0
56288 240 0
55278 -240 0
54598 241 0
55278 -241 0
58736 242 0
55278 -242 0
53772 243 0
55278 -243 0
56024 244 0
55278 -244 0
58240 245 0
55278 -245 0
56874 246 0
55278 -246 0
44933 14 0
55278 -14 0
56260 247 0
55278 -247 0
54048 248 0
55278 -248 0
56666 249 0
55278 -249 0
53138 250 0
55278 -250 0
51722 251 0
55278 -251 0
55858 252 0
55278 -252 0
54334 253 0
55278 -253 0
57936 254 0
55278 -254 0
55932 255 0
55278 -255 0
55782 256 0
55278 -256 0
45006 15 0
55278 -15 0
57258 257 0
55278 -257 0
44504 258 0
55278 -258 0
57842 259 0
55278 -259 0
56766 260 0
55278 -260 0
54852 261 0
55278 -261 0
53370 262 0
55278 -262 0
48030 263 0
55278 -263 0
55148 264 0
55278 -264 0
56958 265 0
55278 -265 0
52120 16 0
55278 -16 0
51322 266 0
55278 -266 0
58252 267 0
55278 -267 0
49300 268 0
55278 -268 0
53464 269 0
55278 -269 0
57338 270 0
55278 -270 0
62340 271 0
55278 -271 0
56520 272 0
55278 -272 0
53514 273 0
55278 -273 0
47055 17 0
55278 -17 0
59444 274 0
55278 -274 0
54676 275 0
55278 -275 0
55244 276 0
55278 -276 0
52468 277 0
55278 -277 0
52328 278 0
55278 -278 0
58928 279 0
55278 -279 0
58218 280 0
55278 -280 0
47425 18 0
55278 -18 0
60170 281 0
55278 -281 0
51244 282 0
55278 -282 0
53058 283 0
55278 -283 0
55716 284 0
55278 -284 0
55508 285 0
55278 -285 0
57210 286 0
55278 -286 0
54436 19 0
55278 -19 0
56712 287 0
55278 -287 0
56938 288 0
55278 -288 0
57710 289 0
55278 -289 0
53170 290 0
55278 -290 0
53094 291 0
55278 -291 0
48139 20 0
55278 -20 0
55862 292 0
55278 -292 0
58172 293 0
55278 -293 0
54568 294 0
55278 -294 0
54858 295 0
55278 -295 0
51331 21 0
55278 -21 0
51964 296 0
55278 -296 0
57952 297 0
55278 -297 0
58890 298 0
55278 -298 0
47578 22 0
55278 -22 0
55410 299 0
55278 -299 0
58050 300 0
55278 -300 0
52965 23 0
55278 -23 0
52086 301 0
55278 -301 0
55362 24 0
55278 -24 0
